NAME : U159B
TYPE : PDTSP
DIMENSION : 159
EDGE_WEIGHT_TYPE : EUC_2D
NODE_COORD_SECTION
1 3300 2200
2 3500 2900
3 3300 2900
4 3500 3100
5 3500 3300
6 3300 3500
7 3500 3700
8 3500 3900
9 3500 4000
10 3500 4100
11 3500 4300
12 3300 4300
13 3500 4500
14 3500 4700
15 3500 4800
16 3300 4900
17 3500 5000
18 3800 5500
19 3900 5700
20 3800 5800
21 3700 5800
22 3500 5600
23 3500 5700
24 3300 5900
25 3500 6100
26 3300 6500
27 3500 6400
28 3800 6600
29 4500 6500
30 4700 6100
31 4300 5700
32 4500 5400
33 5100 5300
34 5100 5000
35 5000 5000
36 5100 4700
37 5000 4700
38 5200 4500
39 5500 4400
40 5600 4400
41 5500 4100
42 5700 3900
43 5900 4100
44 6100 3900
45 6300 4100
46 6500 4100
47 6700 4100
48 6900 4100
49 7000 4500
50 7300 4500
51 7300 4700
52 7400 5100
53 7700 5500
54 7800 5700
55 7300 6200
56 7300 6500
57 7600 6500
58 7700 6600
59 8100 6600
60 8500 6300
61 8500 6000
62 8500 5700
63 8200 5700
64 8500 5300
65 8500 5200
66 8500 5100
67 8500 5000
68 8500 4900
69 8500 4800
70 8500 4700
71 8500 4600
72 8500 4500
73 8200 4600
74 7800 4600
75 7700 4300
76 8000 4300
77 8100 4000
78 8500 4200
79 8500 4100
80 8500 4000
81 8500 3900
82 8500 3800
83 8500 3700
84 8500 3600
85 8500 3500
86 8500 3400
87 8200 3200
88 8000 3200
89 7800 3400
90 7600 3400
91 7400 3400
92 7300 3000
93 7300 2800
94 7700 3200
95 8000 2900
96 8100 3000
97 8500 3100
98 8500 3000
99 8500 2900
100 8500 2800
101 8500 2700
102 8500 2600
103 8500 2500
104 8500 2400
105 8500 2300
106 8200 2100
107 7800 2100
108 6900 2200
109 6700 2300
110 6500 2300
111 6300 2300
112 6100 2300
113 5900 2300
114 5900 2900
115 6100 2900
116 6300 2900
117 6500 2900
118 6700 2900
119 6700 3500
120 6500 3500
121 6300 3500
122 6100 3500
123 5900 3500
124 5300 2800
125 4700 2100
126 4300 2600
127 4700 2900
128 5000 3100
129 5100 2900
130 5300 3100
131 5000 3400
132 5200 3700
133 5000 3900
134 5100 3900
135 5100 4200
136 5000 4200
137 4700 4400
138 4700 4700
139 4300 4400
140 4300 4600
141 4100 4400
142 3900 4600
143 3700 4400
144 3700 4300
145 3800 4300
146 3700 4100
147 3700 4000
148 3700 3900
149 3800 4000
150 3900 3800
151 3700 3700
152 3500 3600
153 3500 3500
154 3700 3500
155 3800 3500
156 3700 3200
157 3800 3200
158 3900 3000
159 3500 2400
PICKUP_AND_DELIVERY_SECTION
1 0 0 0 0 0 0
2 0 0 0 0 125 0
3 0 0 0 0 0 158
4 0 0 0 0 26 0
5 0 0 0 0 0 159
6 0 0 0 0 0 12
7 0 0 0 0 0 141
8 0 0 0 0 0 157
9 0 0 0 0 11 0
10 0 0 0 0 154 0
11 0 0 0 0 0 9
12 0 0 0 0 6 0
13 0 0 0 0 0 14
14 0 0 0 0 13 0
15 0 0 0 0 145 0
16 0 0 0 0 0 17
17 0 0 0 0 16 0
18 0 0 0 0 0 30
19 0 0 0 0 21 0
20 0 0 0 0 0 155
21 0 0 0 0 0 19
22 0 0 0 0 0 23
23 0 0 0 0 22 0
24 0 0 0 0 48 0
25 0 0 0 0 33 0
26 0 0 0 0 0 4
27 0 0 0 0 136 0
28 0 0 0 0 0 29
29 0 0 0 0 28 0
30 0 0 0 0 18 0
31 0 0 0 0 0 32
32 0 0 0 0 31 0
33 0 0 0 0 0 25
34 0 0 0 0 51 0
35 0 0 0 0 67 0
36 0 0 0 0 135 0
37 0 0 0 0 0 138
38 0 0 0 0 86 0
39 0 0 0 0 40 0
40 0 0 0 0 0 39
41 0 0 0 0 0 133
42 0 0 0 0 0 44
43 0 0 0 0 122 0
44 0 0 0 0 42 0
45 0 0 0 0 0 73
46 0 0 0 0 47 0
47 0 0 0 0 0 46
48 0 0 0 0 0 24
49 0 0 0 0 0 75
50 0 0 0 0 52 0
51 0 0 0 0 0 34
52 0 0 0 0 0 50
53 0 0 0 0 68 0
54 0 0 0 0 60 0
55 0 0 0 0 0 56
56 0 0 0 0 55 0
57 0 0 0 0 0 62
58 0 0 0 0 80 0
59 0 0 0 0 0 61
60 0 0 0 0 0 54
61 0 0 0 0 59 0
62 0 0 0 0 57 0
63 0 0 0 0 64 0
64 0 0 0 0 0 63
65 0 0 0 0 0 74
66 0 0 0 0 71 0
67 0 0 0 0 0 35
68 0 0 0 0 0 53
69 0 0 0 0 87 0
70 0 0 0 0 0 79
71 0 0 0 0 0 66
72 0 0 0 0 96 0
73 0 0 0 0 45 0
74 0 0 0 0 65 0
75 0 0 0 0 49 0
76 0 0 0 0 98 0
77 0 0 0 0 0 84
78 0 0 0 0 0 82
79 0 0 0 0 70 0
80 0 0 0 0 0 58
81 0 0 0 0 83 0
82 0 0 0 0 78 0
83 0 0 0 0 0 81
84 0 0 0 0 77 0
85 0 0 0 0 0 97
86 0 0 0 0 0 38
87 0 0 0 0 0 69
88 0 0 0 0 0 119
89 0 0 0 0 0 92
90 0 0 0 0 103 0
91 0 0 0 0 0 116
92 0 0 0 0 89 0
93 0 0 0 0 0 142
94 0 0 0 0 0 106
95 0 0 0 0 0 102
96 0 0 0 0 0 72
97 0 0 0 0 85 0
98 0 0 0 0 0 76
99 0 0 0 0 101 0
100 0 0 0 0 0 104
101 0 0 0 0 0 99
102 0 0 0 0 95 0
103 0 0 0 0 0 90
104 0 0 0 0 100 0
105 0 0 0 0 107 0
106 0 0 0 0 94 0
107 0 0 0 0 0 105
108 0 0 0 0 111 0
109 0 0 0 0 0 137
110 0 0 0 0 118 0
111 0 0 0 0 0 108
112 0 0 0 0 0 117
113 0 0 0 0 115 0
114 0 0 0 0 0 128
115 0 0 0 0 0 113
116 0 0 0 0 91 0
117 0 0 0 0 112 0
118 0 0 0 0 0 110
119 0 0 0 0 88 0
120 0 0 0 0 0 121
121 0 0 0 0 120 0
122 0 0 0 0 0 43
123 0 0 0 0 0 130
124 0 0 0 0 132 0
125 0 0 0 0 0 2
126 0 0 0 0 153 0
127 0 0 0 0 131 0
128 0 0 0 0 114 0
129 0 0 0 0 134 0
130 0 0 0 0 123 0
131 0 0 0 0 0 127
132 0 0 0 0 0 124
133 0 0 0 0 41 0
134 0 0 0 0 0 129
135 0 0 0 0 0 36
136 0 0 0 0 0 27
137 0 0 0 0 109 0
138 0 0 0 0 37 0
139 0 0 0 0 143 0
140 0 0 0 0 0 147
141 0 0 0 0 7 0
142 0 0 0 0 93 0
143 0 0 0 0 0 139
144 0 0 0 0 149 0
145 0 0 0 0 0 15
146 0 0 0 0 0 148
147 0 0 0 0 140 0
148 0 0 0 0 146 0
149 0 0 0 0 0 144
150 0 0 0 0 152 0
151 0 0 0 0 156 0
152 0 0 0 0 0 150
153 0 0 0 0 0 126
154 0 0 0 0 0 10
155 0 0 0 0 20 0
156 0 0 0 0 0 151
157 0 0 0 0 8 0
158 0 0 0 0 3 0
159 0 0 0 0 5 0
DEPOT_SECTION
1 
-1
EOF
